c description: Perfect Matching Principle on 
c generator: CNFgen (0.9.0)
c copyright: (C) 2012-2020 Massimo Lauria <massimo.lauria@uniroma1.it>
c url: https://massimolauria.net/cnfgen
c
p cnf 60 257
-1 -2 0
1 2 0
-3 -4 0
-3 -5 0
-3 -6 0
-4 -5 0
-4 -6 0
-5 -6 0
3 4 5 6 0
7 0
-1 -8 0
-1 -9 0
-1 -10 0
-1 -11 0
-8 -9 0
-8 -10 0
-8 -11 0
-9 -10 0
-9 -11 0
-10 -11 0
1 8 9 10 11 0
-8 -12 0
-8 -13 0
-8 -14 0
-12 -13 0
-12 -14 0
-13 -14 0
8 12 13 14 0
-15 -16 0
-15 -17 0
-15 -18 0
-15 -19 0
-15 -20 0
-16 -17 0
-16 -18 0
-16 -19 0
-16 -20 0
-17 -18 0
-17 -19 0
-17 -20 0
-18 -19 0
-18 -20 0
-19 -20 0
15 16 17 18 19 20 0
-2 -9 0
-2 -21 0
-9 -21 0
2 9 21 0
-22 -23 0
-22 -24 0
-23 -24 0
22 23 24 0
-10 -15 0
-10 -25 0
-10 -26 0
-10 -27 0
-10 -28 0
-15 -25 0
-15 -26 0
-15 -27 0
-15 -28 0
-25 -26 0
-25 -27 0
-25 -28 0
-26 -27 0
-26 -28 0
-27 -28 0
10 15 25 26 27 28 0
29 0
-22 -30 0
-22 -31 0
-22 -32 0
-22 -33 0
-22 -34 0
-30 -31 0
-30 -32 0
-30 -33 0
-30 -34 0
-31 -32 0
-31 -33 0
-31 -34 0
-32 -33 0
-32 -34 0
-33 -34 0
22 30 31 32 33 34 0
-16 -25 0
-16 -35 0
-16 -36 0
-16 -37 0
-25 -35 0
-25 -36 0
-25 -37 0
-35 -36 0
-35 -37 0
-36 -37 0
16 25 35 36 37 0
0
-38 -39 0
38 39 0
-7 -11 0
-7 -30 0
-7 -40 0
-7 -41 0
-7 -42 0
-7 -43 0
-11 -30 0
-11 -40 0
-11 -41 0
-11 -42 0
-11 -43 0
-30 -40 0
-30 -41 0
-30 -42 0
-30 -43 0
-40 -41 0
-40 -42 0
-40 -43 0
-41 -42 0
-41 -43 0
-42 -43 0
7 11 30 40 41 42 43 0
-3 -17 0
-3 -31 0
-3 -44 0
-3 -45 0
-17 -31 0
-17 -44 0
-17 -45 0
-31 -44 0
-31 -45 0
-44 -45 0
3 17 31 44 45 0
-44 -46 0
-44 -47 0
-46 -47 0
44 46 47 0
-4 -26 0
-4 -48 0
-26 -48 0
4 26 48 0
-23 -35 0
-23 -48 0
-23 -49 0
-35 -48 0
-35 -49 0
-48 -49 0
23 35 48 49 0
-18 -27 0
-18 -38 0
-18 -50 0
-18 -51 0
-18 -52 0
-27 -38 0
-27 -50 0
-27 -51 0
-27 -52 0
-38 -50 0
-38 -51 0
-38 -52 0
-50 -51 0
-50 -52 0
-51 -52 0
18 27 38 50 51 52 0
-21 -39 0
-21 -50 0
-21 -53 0
-39 -50 0
-39 -53 0
-50 -53 0
21 39 50 53 0
-12 -24 0
-12 -32 0
-12 -53 0
-12 -54 0
-24 -32 0
-24 -53 0
-24 -54 0
-32 -53 0
-32 -54 0
-53 -54 0
12 24 32 53 54 0
-33 -46 0
-33 -55 0
-46 -55 0
33 46 55 0
-13 -40 0
-13 -49 0
-13 -51 0
-13 -55 0
-13 -56 0
-40 -49 0
-40 -51 0
-40 -55 0
-40 -56 0
-49 -51 0
-49 -55 0
-49 -56 0
-51 -55 0
-51 -56 0
-55 -56 0
13 40 49 51 55 56 0
-5 -19 0
-5 -28 0
-5 -36 0
-5 -57 0
-19 -28 0
-19 -36 0
-19 -57 0
-28 -36 0
-28 -57 0
-36 -57 0
5 19 28 36 57 0
-20 -29 0
-20 -58 0
-29 -58 0
20 29 58 0
-34 -37 0
-34 -41 0
-37 -41 0
34 37 41 0
-14 -54 0
-14 -57 0
-14 -58 0
-14 -59 0
-54 -57 0
-54 -58 0
-54 -59 0
-57 -58 0
-57 -59 0
-58 -59 0
14 54 57 58 59 0
-6 -42 0
-6 -45 0
-6 -47 0
-6 -56 0
-6 -59 0
-6 -60 0
-42 -45 0
-42 -47 0
-42 -56 0
-42 -59 0
-42 -60 0
-45 -47 0
-45 -56 0
-45 -59 0
-45 -60 0
-47 -56 0
-47 -59 0
-47 -60 0
-56 -59 0
-56 -60 0
-59 -60 0
6 42 45 47 56 59 60 0
-43 -52 0
-43 -60 0
-52 -60 0
43 52 60 0